c 2 __LINUXTHREADS_OLD__
c 1 __UCLIBC_HAS_THREADS_NATIVE__
c 4 __UCLIBC_HAS_STDIO_BUFSIZ_NONE__
c 6 __MALLOC_STANDARD__
c 7 __LINUXTHREADS_NEW__
c 3 __UCLIBC_HAS_ADVANCED_REALTIME__
c 5 __UCLIBC_HAS_THREADS__
p cnf 7 1
1 2 4 -5 -3 -6 7 1
